c colouring generated by benchmark framework
p edge 300 21695
v 1 40
v 2 26
v 3 0
v 4 0
v 5 39
v 6 7
v 7 28
v 8 38
v 9 5
v 10 37
v 11 10
v 12 14
v 13 9
v 14 43
v 15 10
v 16 20
v 17 17
v 18 33
v 19 21
v 20 24
v 21 39
v 22 17
v 23 6
v 24 4
v 25 18
v 26 26
v 27 41
v 28 3
v 29 11
v 30 16
v 31 43
v 32 41
v 33 25
v 34 35
v 35 8
v 36 22
v 37 23
v 38 22
v 39 9
v 40 39
v 41 10
v 42 3
v 43 35
v 44 7
v 45 41
v 46 20
v 47 5
v 48 9
v 49 16
v 50 26
v 51 35
v 52 6
v 53 9
v 54 15
v 55 43
v 56 31
v 57 43
v 58 21
v 59 5
v 60 15
v 61 24
v 62 39
v 63 35
v 64 8
v 65 30
v 66 5
v 67 11
v 68 24
v 69 21
v 70 15
v 71 17
v 72 43
v 73 9
v 74 17
v 75 3
v 76 18
v 77 21
v 78 25
v 79 18
v 80 23
v 81 28
v 82 32
v 83 18
v 84 29
v 85 19
v 86 22
v 87 23
v 88 16
v 89 31
v 90 25
v 91 9
v 92 6
v 93 37
v 94 5
v 95 34
v 96 4
v 97 29
v 98 42
v 99 3
v 100 7
v 101 35
v 102 22
v 103 16
v 104 43
v 105 14
v 106 29
v 107 39
v 108 33
v 109 11
v 110 11
v 111 39
v 112 31
v 113 9
v 114 15
v 115 20
v 116 42
v 117 20
v 118 16
v 119 6
v 120 8
v 121 33
v 122 41
v 123 14
v 124 12
v 125 4
v 126 13
v 127 19
v 128 14
v 129 41
v 130 11
v 131 3
v 132 36
v 133 29
v 134 17
v 135 11
v 136 33
v 137 31
v 138 3
v 139 23
v 140 37
v 141 33
v 142 42
v 143 26
v 144 40
v 145 21
v 146 0
v 147 34
v 148 1
v 149 6
v 150 2
v 151 17
v 152 18
v 153 20
v 154 28
v 155 1
v 156 40
v 157 7
v 158 8
v 159 30
v 160 27
v 161 7
v 162 31
v 163 7
v 164 11
v 165 34
v 166 38
v 167 8
v 168 10
v 169 22
v 170 8
v 171 21
v 172 13
v 173 31
v 174 5
v 175 25
v 176 22
v 177 4
v 178 17
v 179 13
v 180 19
v 181 38
v 182 31
v 183 19
v 184 13
v 185 5
v 186 26
v 187 35
v 188 2
v 189 27
v 190 20
v 191 13
v 192 30
v 193 13
v 194 34
v 195 38
v 196 39
v 197 1
v 198 24
v 199 20
v 200 26
v 201 0
v 202 1
v 203 10
v 204 14
v 205 33
v 206 1
v 207 15
v 208 29
v 209 36
v 210 7
v 211 30
v 212 5
v 213 32
v 214 19
v 215 35
v 216 41
v 217 32
v 218 35
v 219 25
v 220 23
v 221 30
v 222 13
v 223 28
v 224 27
v 225 28
v 226 19
v 227 40
v 228 36
v 229 34
v 230 24
v 231 2
v 232 35
v 233 32
v 234 16
v 235 14
v 236 12
v 237 1
v 238 5
v 239 18
v 240 12
v 241 42
v 242 36
v 243 32
v 244 15
v 245 15
v 246 8
v 247 26
v 248 22
v 249 40
v 250 27
v 251 10
v 252 2
v 253 16
v 254 29
v 255 0
v 256 2
v 257 40
v 258 34
v 259 28
v 260 3
v 261 2
v 262 7
v 263 12
v 264 25
v 265 23
v 266 27
v 267 25
v 268 40
v 269 30
v 270 24
v 271 17
v 272 4
v 273 36
v 274 22
v 275 12
v 276 0
v 277 26
v 278 0
v 279 12
v 280 24
v 281 37
v 282 19
v 283 33
v 284 1
v 285 13
v 286 20
v 287 36
v 288 25
v 289 17
v 290 12
v 291 16
v 292 29
v 293 6
v 294 21
v 295 6
v 296 10
v 297 18
v 298 1
v 299 1
v 300 4
